p cnf 25 18
-1 -2 -3 4 8 11 19 20 21 0 
-1 -4 3 8 11 19 20 21 0 
-5 14 21 0 
-6 -1 -7 -8 3 4 11 19 20 21 0 
-8 3 4 11 19 20 21 0 
-9 22 0 
-10 23 0 
-11 3 4 8 19 20 23 0 
-12 23 0 
-13 23 0 
-14 5 22 0 
-15 22 0 
-16 24 0 
-17 -18 25 0 
-18 22 0 
-1 -2 -19 3 4 8 11 20 21 0 
-1 -20 3 4 8 11 19 21 0 
-18 25 0 
